100
61 5
85 53
17 57
49 93
69 11
87 15
49 39
87 23
19 83
69 87
69 43
49 67
17 61
45 61
21 53
71 37
53 23
77 63
89 7
21 83
77 25
85 95
43 93
75 25
1 43
7 7
81 69
23 57
81 15
77 35
49 3
21 93
41 37
71 91
31 13
69 33
91 47
13 69
65 75
91 27
9 85
15 19
7 37
61 11
59 83
85 69
15 29
1 13
1 83
85 31
95 25
5 33
51 11
51 85
DEMAND_SECTION Best value: 1167
0 
24 
9 
15 
17 
2 
19 
10 
17 
20 
16 
8 
12 
3 
23 
4 
23 
20 
2 
19 
2 
23 
23 
5 
12 
15 
9 
13 
18 
16 
7 
6 
2 
8 
2 
2 
4 
13 
18 
9 
19 
3 
14 
19 
21 
4 
6 
22 
13 
10 
18 
5 
9 
36 